words_easy_train/words_853_UNSAT.qaiger
aag 29 16 0 1 13
32
2
14
16
26
22
24
10
28
18
4
30
20
8
12
6
59
34 33 4
36 30 2
38 37 35
40 32 5
42 41 6
44 42 39
46 45 9
48 14 12
50 48 10
52 50 47
54 53 16
56 52 17
58 57 55
i0 2 y1[7]
i1 1 x1[0]
i2 1 x1[6]
i3 1 x1[7]
i4 2 y1[4]
i5 2 y1[2]
i6 2 y1[3]
i7 1 x1[4]
i8 2 y1[5]
i9 2 y1[0]
i10 1 x1[1]
i11 2 y1[6]
i12 2 y1[1]
i13 1 x1[3]
i14 1 x1[5]
i15 1 x1[2]
o0 bv[0]
c
simplified
  >=
    1 x1
    subtract
      -138
      >> 6
        2 y1
