words_easy_train/words_853_UNSAT.qaiger.qdimacs
p cnf 29 40
a 1 2 3 4 5 6 7 8 0
e 9 10 11 12 13 14 15 16 17 18 19 20 21 22 23 24 25 26 27 28 29 0
16 -2 17 0
-16 -17 0
2 -17 0
-15 -1 18 0
15 -18 0
1 -18 0
18 17 19 0
-18 -19 0
-17 -19 0
-16 2 20 0
16 -20 0
-2 -20 0
20 -3 21 0
-20 -21 0
3 -21 0
-21 19 22 0
21 -22 0
-19 -22 0
22 4 23 0
-22 -23 0
-4 -23 0
-7 -6 24 0
7 -24 0
6 -24 0
-24 -5 25 0
24 -25 0
5 -25 0
-25 23 26 0
25 -26 0
-23 -26 0
26 -8 27 0
-26 -27 0
8 -27 0
-26 8 28 0
26 -28 0
-8 -28 0
28 27 29 0
-28 -29 0
-27 -29 0
-29 0
